NAME : a280
COMMENT : Algorithm MCMF_knn_2opt
COMMENT : Length 2708 
COMMENT : Elapsed time 0.0383815 seconds
TYPE : TOUR
DIMENSION : 280
TOUR_SECTION
211
212
213
214
215
216
217
218
219
220
221
222
223
224
225
226
227
228
229
230
251
250
247
245
246
231
232
233
234
235
236
237
238
239
240
241
244
243
242
2
1
280
3
279
278
248
249
256
257
258
259
260
261
262
263
264
208
253
254
255
252
209
210
207
206
205
204
203
202
200
144
143
142
141
265
140
139
149
148
147
146
145
199
198
201
196
197
195
194
193
192
191
190
189
188
187
186
185
184
183
182
181
180
179
150
136
137
138
266
267
268
269
135
134
270
16
271
272
273
274
275
276
277
4
5
6
7
9
8
10
11
12
13
15
14
17
133
132
131
130
129
154
155
153
156
152
151
178
177
176
160
159
158
157
119
120
121
122
123
124
125
30
126
127
128
21
20
19
18
24
23
25
22
26
27
28
29
31
32
33
34
36
37
38
35
39
40
41
42
43
60
61
62
63
59
44
45
46
47
48
49
50
51
52
53
54
55
56
57
58
68
69
64
65
66
67
70
71
72
73
74
75
76
77
78
79
82
83
84
85
86
116
118
117
115
114
113
87
88
112
111
110
108
109
90
89
81
80
91
92
93
94
95
96
97
98
99
100
101
102
103
104
105
106
107
173
174
175
161
162
163
164
165
166
167
168
169
170
171
172
EOF
